p wcnf 1584 1581 10
10 -10 1 
10 -12 1 
10 -14 1 
10 -16 1 
10 -18 1 
10 -20 1 
10 -22 1 
10 -24 1 
10 -26 1 
10 -28 1 
10 -31 1 
10 -34 1 
10 -37 1 
10 -40 1 
10 -43 1 
10 -46 1 
10 -49 1 
10 -52 1 
10 -55 1 
10 -59 1 
10 -63 1 
10 -67 1 
10 -71 1 
10 -75 1 
10 -79 1 
10 -83 1 
10 -87 1 
10 -91 1 
10 -96 1 
10 -101 1 
10 -106 1 
10 -111 1 
10 -116 1 
10 -121 1 
10 -126 1 
10 -131 1 
10 -136 1 
10 -142 1 
10 -148 1 
10 -154 1 
10 -160 1 
10 -166 1 
10 -172 1 
10 -178 1 
10 -184 1 
10 -190 1 
10 -197 1 
10 -204 1 
10 -211 1 
10 -218 1 
10 -225 1 
10 -232 1 
10 -239 1 
10 -246 1 
10 -253 1 
10 -261 1 
10 -269 1 
10 -277 1 
10 -285 1 
10 -293 1 
10 -301 1 
10 -309 1 
10 -317 1 
10 -325 1 
10 -334 1 
10 -343 1 
10 -352 1 
10 -361 1 
10 -370 1 
10 -379 1 
10 -388 1 
10 -397 1 
10 -406 10 
10 -409 10 
10 -412 10 
10 -415 10 
10 -418 10 
10 -421 10 
10 -424 10 
10 -427 10 
10 -430 10 
10 -434 10 
10 -438 10 
10 -442 10 
10 -446 10 
10 -450 10 
10 -454 10 
10 -458 10 
10 -462 10 
10 -467 10 
10 -472 10 
10 -477 10 
10 -482 10 
10 -487 10 
10 -492 10 
10 -497 10 
10 -502 10 
10 -508 10 
10 -514 10 
10 -520 10 
10 -526 10 
10 -532 10 
10 -538 10 
10 -544 10 
10 -550 10 
10 -557 10 
10 -564 10 
10 -571 10 
10 -578 10 
10 -585 10 
10 -592 10 
10 -599 10 
10 -606 10 
10 -614 10 
10 -622 10 
10 -630 10 
10 -638 10 
10 -646 10 
10 -654 10 
10 -662 10 
10 -670 10 
10 -679 10 
10 -688 10 
10 -697 10 
10 -706 10 
10 -715 10 
10 -724 10 
10 -733 10 
10 -742 28 
10 -745 28 
10 -748 28 
10 -751 28 
10 -754 28 
10 -757 28 
10 -760 28 
10 -763 28 
10 -767 28 
10 -771 28 
10 -775 28 
10 -779 28 
10 -783 28 
10 -787 28 
10 -791 28 
10 -796 28 
10 -801 28 
10 -806 28 
10 -811 28 
10 -816 28 
10 -821 28 
10 -826 28 
10 -832 28 
10 -838 28 
10 -844 28 
10 -850 28 
10 -856 28 
10 -862 28 
10 -868 28 
10 -875 28 
10 -882 28 
10 -889 28 
10 -896 28 
10 -903 28 
10 -910 28 
10 -917 28 
10 -925 28 
10 -933 28 
10 -941 28 
10 -949 28 
10 -957 28 
10 -965 28 
10 -973 55 
10 -976 55 
10 -979 55 
10 -982 55 
10 -985 55 
10 -988 55 
10 -991 55 
10 -995 55 
10 -999 55 
10 -1003 55 
10 -1007 55 
10 -1011 55 
10 -1015 55 
10 -1020 55 
10 -1025 55 
10 -1030 55 
10 -1035 55 
10 -1040 55 
10 -1045 55 
10 -1051 55 
10 -1057 55 
10 -1063 55 
10 -1069 55 
10 -1075 55 
10 -1081 55 
10 -1088 55 
10 -1095 55 
10 -1102 55 
10 -1109 55 
10 -1116 55 
10 -1123 91 
10 -1126 91 
10 -1129 91 
10 -1132 91 
10 -1135 91 
10 -1138 91 
10 -1142 91 
10 -1146 91 
10 -1150 91 
10 -1154 91 
10 -1158 91 
10 -1163 91 
10 -1168 91 
10 -1173 91 
10 -1178 91 
10 -1183 91 
10 -1189 91 
10 -1195 91 
10 -1201 91 
10 -1207 91 
10 -1213 136 
10 -1216 136 
10 -1219 136 
10 -1222 136 
10 -1225 136 
10 -1229 136 
10 -1233 136 
10 -1237 136 
10 -1241 136 
10 -1246 136 
10 -1251 136 
10 -1256 136 
10 -1261 190 
10 -1264 190 
10 -1267 190 
10 -1270 190 
10 -1274 190 
10 -1278 190 
10 -1282 253 
10 -1285 253 
10 -1288 1 
10 -1290 1 
10 -1292 1 
10 -1294 1 
10 -1296 1 
10 -1298 1 
10 -1300 1 
10 -1302 1 
10 -1304 1 
10 -1306 1 
10 -1309 1 
10 -1312 1 
10 -1315 1 
10 -1318 1 
10 -1321 1 
10 -1324 1 
10 -1327 1 
10 -1330 1 
10 -1333 1 
10 -1337 1 
10 -1341 1 
10 -1345 1 
10 -1349 1 
10 -1353 1 
10 -1357 1 
10 -1361 1 
10 -1365 1 
10 -1369 1 
10 -1374 1 
10 -1379 1 
10 -1384 1 
10 -1389 1 
10 -1394 1 
10 -1399 1 
10 -1404 1 
10 -1409 1 
10 -1414 1288 
10 -1417 1288 
10 -1420 1288 
10 -1423 1288 
10 -1426 1288 
10 -1429 1288 
10 -1432 1288 
10 -1435 1288 
10 -1438 1288 
10 -1442 1288 
10 -1446 1288 
10 -1450 1288 
10 -1454 1288 
10 -1458 1288 
10 -1462 1288 
10 -1466 1288 
10 -1470 1288 
10 -1475 1288 
10 -1480 1288 
10 -1485 1288 
10 -1490 1288 
10 -1495 1288 
10 -1500 1288 
10 -1505 1288 
10 -1510 1306 
10 -1513 1306 
10 -1516 1306 
10 -1519 1306 
10 -1522 1306 
10 -1525 1306 
10 -1528 1306 
10 -1531 1306 
10 -1535 1306 
10 -1539 1306 
10 -1543 1306 
10 -1547 1306 
10 -1551 1306 
10 -1555 1306 
10 -1559 1333 
10 -1562 1333 
10 -1565 1333 
10 -1568 1333 
10 -1571 1333 
10 -1574 1333 
10 -1577 325 334 343 352 361 370 379 388 397 670 679 688 697 706 715 724 733 917 925 933 941 949 957 965 1081 1088 1095 1102 1109 1116 1183 1189 1195 1201 1207 1369 
10 -1578 325 334 343 352 361 370 379 388 397 670 679 688 697 706 715 724 733 917 925 933 941 949 957 965 1081 1088 1095 1102 1109 1116 1183 1189 1195 1201 1207 1369 
10 -1579 325 334 343 352 361 370 379 388 397 670 679 688 697 706 715 724 733 917 925 933 941 949 957 965 1081 1088 1095 1102 1109 1116 1183 1189 1195 1201 1207 1369 
10 -1580 325 334 343 352 361 370 379 388 397 670 679 688 697 706 715 724 733 917 925 933 941 949 957 965 1081 1088 1095 1102 1109 1116 1183 1189 1195 1201 1207 1369 
10 -1581 325 334 343 352 361 370 379 388 397 670 679 688 697 706 715 724 733 917 925 933 941 949 957 965 1081 1088 1095 1102 1109 1116 1183 1189 1195 1201 1207 1369 
10 10 12 14 16 18 20 22 24 26 28 31 34 37 40 43 46 49 52 55 59 63 67 71 75 79 83 87 91 96 101 106 111 116 121 126 131 136 142 148 154 160 166 172 178 184 190 197 204 211 218 225 232 239 246 253 261 269 277 285 293 301 309 317 325 334 343 352 361 370 379 388 397 
10 10 12 14 16 18 20 22 24 26 28 31 34 37 40 43 46 49 52 55 59 63 67 71 75 79 83 87 91 96 101 106 111 116 121 126 131 136 142 148 154 160 166 172 178 184 190 197 204 211 218 225 232 239 246 253 261 269 277 285 293 301 309 317 325 334 343 352 361 370 379 388 397 406 409 412 415 418 421 424 427 430 434 438 442 446 450 454 458 462 467 472 477 482 487 492 497 502 508 514 520 526 532 538 544 550 557 564 571 578 585 592 599 606 614 622 630 638 646 654 662 670 679 688 697 706 715 724 733 
10 28 31 34 37 40 43 46 49 52 55 59 63 67 71 75 79 83 87 91 96 101 106 111 116 121 126 131 136 142 148 154 160 166 172 178 184 190 197 204 211 218 225 232 239 246 253 261 269 277 285 293 301 309 317 325 334 343 352 361 370 379 388 397 406 409 412 415 418 421 424 427 430 434 438 442 446 450 454 458 462 467 472 477 482 487 492 497 502 508 514 520 526 532 538 544 550 557 564 571 578 585 592 599 606 614 622 630 638 646 654 662 670 679 688 697 706 715 724 733 742 745 748 751 754 757 760 763 767 771 775 779 783 787 791 796 801 806 811 816 821 826 832 838 844 850 856 862 868 875 882 889 896 903 910 917 925 933 941 949 957 965 
10 55 59 63 67 71 75 79 83 87 91 96 101 106 111 116 121 126 131 136 142 148 154 160 166 172 178 184 190 197 204 211 218 225 232 239 246 253 261 269 277 285 293 301 309 317 325 334 343 352 361 370 379 388 397 406 409 412 415 418 421 424 427 430 434 438 442 446 450 454 458 462 467 472 477 482 487 492 497 502 508 514 520 526 532 538 544 550 557 564 571 578 585 592 599 606 614 622 630 638 646 654 662 670 679 688 697 706 715 724 733 742 745 748 751 754 757 760 763 767 771 775 779 783 787 791 796 801 806 811 816 821 826 832 838 844 850 856 862 868 875 882 889 896 903 910 917 925 933 941 949 957 965 973 976 979 982 985 988 991 995 999 1003 1007 1011 1015 1020 1025 1030 1035 1040 1045 1051 1057 1063 1069 1075 1081 1088 1095 1102 1109 1116 
10 91 96 101 106 111 116 121 126 131 136 142 148 154 160 166 172 178 184 190 197 204 211 218 225 232 239 246 253 261 269 277 285 293 301 309 317 325 334 343 352 361 370 379 388 397 430 434 438 442 446 450 454 458 462 467 472 477 482 487 492 497 502 508 514 520 526 532 538 544 550 557 564 571 578 585 592 599 606 614 622 630 638 646 654 662 670 679 688 697 706 715 724 733 742 745 748 751 754 757 760 763 767 771 775 779 783 787 791 796 801 806 811 816 821 826 832 838 844 850 856 862 868 875 882 889 896 903 910 917 925 933 941 949 957 965 973 976 979 982 985 988 991 995 999 1003 1007 1011 1015 1020 1025 1030 1035 1040 1045 1051 1057 1063 1069 1075 1081 1088 1095 1102 1109 1116 1123 1126 1129 1132 1135 1138 1142 1146 1150 1154 1158 1163 1168 1173 1178 1183 1189 1195 1201 1207 
10 136 142 148 154 160 166 172 178 184 190 197 204 211 218 225 232 239 246 253 261 269 277 285 293 301 309 317 325 334 343 352 361 370 379 388 397 462 467 472 477 482 487 492 497 502 508 514 520 526 532 538 544 550 557 564 571 578 585 592 599 606 614 622 630 638 646 654 662 670 679 688 697 706 715 724 733 763 767 771 775 779 783 787 791 796 801 806 811 816 821 826 832 838 844 850 856 862 868 875 882 889 896 903 910 917 925 933 941 949 957 965 973 976 979 982 985 988 991 995 999 1003 1007 1011 1015 1020 1025 1030 1035 1040 1045 1051 1057 1063 1069 1075 1081 1088 1095 1102 1109 1116 1123 1126 1129 1132 1135 1138 1142 1146 1150 1154 1158 1163 1168 1173 1178 1183 1189 1195 1201 1207 1213 1216 1219 1222 1225 1229 1233 1237 1241 1246 1251 1256 
10 190 197 204 211 218 225 232 239 246 253 261 269 277 285 293 301 309 317 325 334 343 352 361 370 379 388 397 502 508 514 520 526 532 538 544 550 557 564 571 578 585 592 599 606 614 622 630 638 646 654 662 670 679 688 697 706 715 724 733 791 796 801 806 811 816 821 826 832 838 844 850 856 862 868 875 882 889 896 903 910 917 925 933 941 949 957 965 991 995 999 1003 1007 1011 1015 1020 1025 1030 1035 1040 1045 1051 1057 1063 1069 1075 1081 1088 1095 1102 1109 1116 1123 1126 1129 1132 1135 1138 1142 1146 1150 1154 1158 1163 1168 1173 1178 1183 1189 1195 1201 1207 1213 1216 1219 1222 1225 1229 1233 1237 1241 1246 1251 1256 1261 1264 1267 1270 1274 1278 
10 253 261 269 277 285 293 301 309 317 325 334 343 352 361 370 379 388 397 550 557 564 571 578 585 592 599 606 614 622 630 638 646 654 662 670 679 688 697 706 715 724 733 826 832 838 844 850 856 862 868 875 882 889 896 903 910 917 925 933 941 949 957 965 1015 1020 1025 1030 1035 1040 1045 1051 1057 1063 1069 1075 1081 1088 1095 1102 1109 1116 1138 1142 1146 1150 1154 1158 1163 1168 1173 1178 1183 1189 1195 1201 1207 1213 1216 1219 1222 1225 1229 1233 1237 1241 1246 1251 1256 1261 1264 1267 1270 1274 1278 1282 1285 
10 1288 1290 1292 1294 1296 1298 1300 1302 1304 1306 1309 1312 1315 1318 1321 1324 1327 1330 1333 1337 1341 1345 1349 1353 1357 1361 1365 1369 1374 1379 1384 1389 1394 1399 1404 1409 
10 1288 1290 1292 1294 1296 1298 1300 1302 1304 1306 1309 1312 1315 1318 1321 1324 1327 1330 1333 1337 1341 1345 1349 1353 1357 1361 1365 1369 1374 1379 1384 1389 1394 1399 1404 1409 1414 1417 1420 1423 1426 1429 1432 1435 1438 1442 1446 1450 1454 1458 1462 1466 1470 1475 1480 1485 1490 1495 1500 1505 
10 1306 1309 1312 1315 1318 1321 1324 1327 1330 1333 1337 1341 1345 1349 1353 1357 1361 1365 1369 1374 1379 1384 1389 1394 1399 1404 1409 1414 1417 1420 1423 1426 1429 1432 1435 1438 1442 1446 1450 1454 1458 1462 1466 1470 1475 1480 1485 1490 1495 1500 1505 1510 1513 1516 1519 1522 1525 1528 1531 1535 1539 1543 1547 1551 1555 
10 1333 1337 1341 1345 1349 1353 1357 1361 1365 1369 1374 1379 1384 1389 1394 1399 1404 1409 1414 1417 1420 1423 1426 1429 1432 1435 1438 1442 1446 1450 1454 1458 1462 1466 1470 1475 1480 1485 1490 1495 1500 1505 1510 1513 1516 1519 1522 1525 1528 1531 1535 1539 1543 1547 1551 1555 1559 1562 1565 1568 1571 1574 
10 -10 11 
10 -12 13 
10 -14 15 
10 -16 17 
10 -18 19 
10 -20 21 
10 -22 23 
10 -24 25 
10 -26 27 
10 -28 29 
10 -28 30 
10 -31 32 
10 -31 33 
10 -34 35 
10 -34 36 
10 -37 38 
10 -37 39 
10 -40 41 
10 -40 42 
10 -43 44 
10 -43 45 
10 -46 47 
10 -46 48 
10 -49 50 
10 -49 51 
10 -52 53 
10 -52 54 
10 -55 56 
10 -55 57 
10 -55 58 
10 -59 60 
10 -59 61 
10 -59 62 
10 -63 64 
10 -63 65 
10 -63 66 
10 -67 68 
10 -67 69 
10 -67 70 
10 -71 72 
10 -71 73 
10 -71 74 
10 -75 76 
10 -75 77 
10 -75 78 
10 -79 80 
10 -79 81 
10 -79 82 
10 -83 84 
10 -83 85 
10 -83 86 
10 -87 88 
10 -87 89 
10 -87 90 
10 -91 92 
10 -91 93 
10 -91 94 
10 -91 95 
10 -96 97 
10 -96 98 
10 -96 99 
10 -96 100 
10 -101 102 
10 -101 103 
10 -101 104 
10 -101 105 
10 -106 107 
10 -106 108 
10 -106 109 
10 -106 110 
10 -111 112 
10 -111 113 
10 -111 114 
10 -111 115 
10 -116 117 
10 -116 118 
10 -116 119 
10 -116 120 
10 -121 122 
10 -121 123 
10 -121 124 
10 -121 125 
10 -126 127 
10 -126 128 
10 -126 129 
10 -126 130 
10 -131 132 
10 -131 133 
10 -131 134 
10 -131 135 
10 -136 137 
10 -136 138 
10 -136 139 
10 -136 140 
10 -136 141 
10 -142 143 
10 -142 144 
10 -142 145 
10 -142 146 
10 -142 147 
10 -148 149 
10 -148 150 
10 -148 151 
10 -148 152 
10 -148 153 
10 -154 155 
10 -154 156 
10 -154 157 
10 -154 158 
10 -154 159 
10 -160 161 
10 -160 162 
10 -160 163 
10 -160 164 
10 -160 165 
10 -166 167 
10 -166 168 
10 -166 169 
10 -166 170 
10 -166 171 
10 -172 173 
10 -172 174 
10 -172 175 
10 -172 176 
10 -172 177 
10 -178 179 
10 -178 180 
10 -178 181 
10 -178 182 
10 -178 183 
10 -184 185 
10 -184 186 
10 -184 187 
10 -184 188 
10 -184 189 
10 -190 191 
10 -190 192 
10 -190 193 
10 -190 194 
10 -190 195 
10 -190 196 
10 -197 198 
10 -197 199 
10 -197 200 
10 -197 201 
10 -197 202 
10 -197 203 
10 -204 205 
10 -204 206 
10 -204 207 
10 -204 208 
10 -204 209 
10 -204 210 
10 -211 212 
10 -211 213 
10 -211 214 
10 -211 215 
10 -211 216 
10 -211 217 
10 -218 219 
10 -218 220 
10 -218 221 
10 -218 222 
10 -218 223 
10 -218 224 
10 -225 226 
10 -225 227 
10 -225 228 
10 -225 229 
10 -225 230 
10 -225 231 
10 -232 233 
10 -232 234 
10 -232 235 
10 -232 236 
10 -232 237 
10 -232 238 
10 -239 240 
10 -239 241 
10 -239 242 
10 -239 243 
10 -239 244 
10 -239 245 
10 -246 247 
10 -246 248 
10 -246 249 
10 -246 250 
10 -246 251 
10 -246 252 
10 -253 254 
10 -253 255 
10 -253 256 
10 -253 257 
10 -253 258 
10 -253 259 
10 -253 260 
10 -261 262 
10 -261 263 
10 -261 264 
10 -261 265 
10 -261 266 
10 -261 267 
10 -261 268 
10 -269 270 
10 -269 271 
10 -269 272 
10 -269 273 
10 -269 274 
10 -269 275 
10 -269 276 
10 -277 278 
10 -277 279 
10 -277 280 
10 -277 281 
10 -277 282 
10 -277 283 
10 -277 284 
10 -285 286 
10 -285 287 
10 -285 288 
10 -285 289 
10 -285 290 
10 -285 291 
10 -285 292 
10 -293 294 
10 -293 295 
10 -293 296 
10 -293 297 
10 -293 298 
10 -293 299 
10 -293 300 
10 -301 302 
10 -301 303 
10 -301 304 
10 -301 305 
10 -301 306 
10 -301 307 
10 -301 308 
10 -309 310 
10 -309 311 
10 -309 312 
10 -309 313 
10 -309 314 
10 -309 315 
10 -309 316 
10 -317 318 
10 -317 319 
10 -317 320 
10 -317 321 
10 -317 322 
10 -317 323 
10 -317 324 
10 -325 326 
10 -325 327 
10 -325 328 
10 -325 329 
10 -325 330 
10 -325 331 
10 -325 332 
10 -325 333 
10 -334 335 
10 -334 336 
10 -334 337 
10 -334 338 
10 -334 339 
10 -334 340 
10 -334 341 
10 -334 342 
10 -343 344 
10 -343 345 
10 -343 346 
10 -343 347 
10 -343 348 
10 -343 349 
10 -343 350 
10 -343 351 
10 -352 353 
10 -352 354 
10 -352 355 
10 -352 356 
10 -352 357 
10 -352 358 
10 -352 359 
10 -352 360 
10 -361 362 
10 -361 363 
10 -361 364 
10 -361 365 
10 -361 366 
10 -361 367 
10 -361 368 
10 -361 369 
10 -370 371 
10 -370 372 
10 -370 373 
10 -370 374 
10 -370 375 
10 -370 376 
10 -370 377 
10 -370 378 
10 -379 380 
10 -379 381 
10 -379 382 
10 -379 383 
10 -379 384 
10 -379 385 
10 -379 386 
10 -379 387 
10 -388 389 
10 -388 390 
10 -388 391 
10 -388 392 
10 -388 393 
10 -388 394 
10 -388 395 
10 -388 396 
10 -397 398 
10 -397 399 
10 -397 400 
10 -397 401 
10 -397 402 
10 -397 403 
10 -397 404 
10 -397 405 
10 -406 407 
10 -406 408 
10 -409 410 
10 -409 411 
10 -412 413 
10 -412 414 
10 -415 416 
10 -415 417 
10 -418 419 
10 -418 420 
10 -421 422 
10 -421 423 
10 -424 425 
10 -424 426 
10 -427 428 
10 -427 429 
10 -430 431 
10 -430 432 
10 -430 433 
10 -434 435 
10 -434 436 
10 -434 437 
10 -438 439 
10 -438 440 
10 -438 441 
10 -442 443 
10 -442 444 
10 -442 445 
10 -446 447 
10 -446 448 
10 -446 449 
10 -450 451 
10 -450 452 
10 -450 453 
10 -454 455 
10 -454 456 
10 -454 457 
10 -458 459 
10 -458 460 
10 -458 461 
10 -462 463 
10 -462 464 
10 -462 465 
10 -462 466 
10 -467 468 
10 -467 469 
10 -467 470 
10 -467 471 
10 -472 473 
10 -472 474 
10 -472 475 
10 -472 476 
10 -477 478 
10 -477 479 
10 -477 480 
10 -477 481 
10 -482 483 
10 -482 484 
10 -482 485 
10 -482 486 
10 -487 488 
10 -487 489 
10 -487 490 
10 -487 491 
10 -492 493 
10 -492 494 
10 -492 495 
10 -492 496 
10 -497 498 
10 -497 499 
10 -497 500 
10 -497 501 
10 -502 503 
10 -502 504 
10 -502 505 
10 -502 506 
10 -502 507 
10 -508 509 
10 -508 510 
10 -508 511 
10 -508 512 
10 -508 513 
10 -514 515 
10 -514 516 
10 -514 517 
10 -514 518 
10 -514 519 
10 -520 521 
10 -520 522 
10 -520 523 
10 -520 524 
10 -520 525 
10 -526 527 
10 -526 528 
10 -526 529 
10 -526 530 
10 -526 531 
10 -532 533 
10 -532 534 
10 -532 535 
10 -532 536 
10 -532 537 
10 -538 539 
10 -538 540 
10 -538 541 
10 -538 542 
10 -538 543 
10 -544 545 
10 -544 546 
10 -544 547 
10 -544 548 
10 -544 549 
10 -550 551 
10 -550 552 
10 -550 553 
10 -550 554 
10 -550 555 
10 -550 556 
10 -557 558 
10 -557 559 
10 -557 560 
10 -557 561 
10 -557 562 
10 -557 563 
10 -564 565 
10 -564 566 
10 -564 567 
10 -564 568 
10 -564 569 
10 -564 570 
10 -571 572 
10 -571 573 
10 -571 574 
10 -571 575 
10 -571 576 
10 -571 577 
10 -578 579 
10 -578 580 
10 -578 581 
10 -578 582 
10 -578 583 
10 -578 584 
10 -585 586 
10 -585 587 
10 -585 588 
10 -585 589 
10 -585 590 
10 -585 591 
10 -592 593 
10 -592 594 
10 -592 595 
10 -592 596 
10 -592 597 
10 -592 598 
10 -599 600 
10 -599 601 
10 -599 602 
10 -599 603 
10 -599 604 
10 -599 605 
10 -606 607 
10 -606 608 
10 -606 609 
10 -606 610 
10 -606 611 
10 -606 612 
10 -606 613 
10 -614 615 
10 -614 616 
10 -614 617 
10 -614 618 
10 -614 619 
10 -614 620 
10 -614 621 
10 -622 623 
10 -622 624 
10 -622 625 
10 -622 626 
10 -622 627 
10 -622 628 
10 -622 629 
10 -630 631 
10 -630 632 
10 -630 633 
10 -630 634 
10 -630 635 
10 -630 636 
10 -630 637 
10 -638 639 
10 -638 640 
10 -638 641 
10 -638 642 
10 -638 643 
10 -638 644 
10 -638 645 
10 -646 647 
10 -646 648 
10 -646 649 
10 -646 650 
10 -646 651 
10 -646 652 
10 -646 653 
10 -654 655 
10 -654 656 
10 -654 657 
10 -654 658 
10 -654 659 
10 -654 660 
10 -654 661 
10 -662 663 
10 -662 664 
10 -662 665 
10 -662 666 
10 -662 667 
10 -662 668 
10 -662 669 
10 -670 671 
10 -670 672 
10 -670 673 
10 -670 674 
10 -670 675 
10 -670 676 
10 -670 677 
10 -670 678 
10 -679 680 
10 -679 681 
10 -679 682 
10 -679 683 
10 -679 684 
10 -679 685 
10 -679 686 
10 -679 687 
10 -688 689 
10 -688 690 
10 -688 691 
10 -688 692 
10 -688 693 
10 -688 694 
10 -688 695 
10 -688 696 
10 -697 698 
10 -697 699 
10 -697 700 
10 -697 701 
10 -697 702 
10 -697 703 
10 -697 704 
10 -697 705 
10 -706 707 
10 -706 708 
10 -706 709 
10 -706 710 
10 -706 711 
10 -706 712 
10 -706 713 
10 -706 714 
10 -715 716 
10 -715 717 
10 -715 718 
10 -715 719 
10 -715 720 
10 -715 721 
10 -715 722 
10 -715 723 
10 -724 725 
10 -724 726 
10 -724 727 
10 -724 728 
10 -724 729 
10 -724 730 
10 -724 731 
10 -724 732 
10 -733 734 
10 -733 735 
10 -733 736 
10 -733 737 
10 -733 738 
10 -733 739 
10 -733 740 
10 -733 741 
10 -742 743 
10 -742 744 
10 -745 746 
10 -745 747 
10 -748 749 
10 -748 750 
10 -751 752 
10 -751 753 
10 -754 755 
10 -754 756 
10 -757 758 
10 -757 759 
10 -760 761 
10 -760 762 
10 -763 764 
10 -763 765 
10 -763 766 
10 -767 768 
10 -767 769 
10 -767 770 
10 -771 772 
10 -771 773 
10 -771 774 
10 -775 776 
10 -775 777 
10 -775 778 
10 -779 780 
10 -779 781 
10 -779 782 
10 -783 784 
10 -783 785 
10 -783 786 
10 -787 788 
10 -787 789 
10 -787 790 
10 -791 792 
10 -791 793 
10 -791 794 
10 -791 795 
10 -796 797 
10 -796 798 
10 -796 799 
10 -796 800 
10 -801 802 
10 -801 803 
10 -801 804 
10 -801 805 
10 -806 807 
10 -806 808 
10 -806 809 
10 -806 810 
10 -811 812 
10 -811 813 
10 -811 814 
10 -811 815 
10 -816 817 
10 -816 818 
10 -816 819 
10 -816 820 
10 -821 822 
10 -821 823 
10 -821 824 
10 -821 825 
10 -826 827 
10 -826 828 
10 -826 829 
10 -826 830 
10 -826 831 
10 -832 833 
10 -832 834 
10 -832 835 
10 -832 836 
10 -832 837 
10 -838 839 
10 -838 840 
10 -838 841 
10 -838 842 
10 -838 843 
10 -844 845 
10 -844 846 
10 -844 847 
10 -844 848 
10 -844 849 
10 -850 851 
10 -850 852 
10 -850 853 
10 -850 854 
10 -850 855 
10 -856 857 
10 -856 858 
10 -856 859 
10 -856 860 
10 -856 861 
10 -862 863 
10 -862 864 
10 -862 865 
10 -862 866 
10 -862 867 
10 -868 869 
10 -868 870 
10 -868 871 
10 -868 872 
10 -868 873 
10 -868 874 
10 -875 876 
10 -875 877 
10 -875 878 
10 -875 879 
10 -875 880 
10 -875 881 
10 -882 883 
10 -882 884 
10 -882 885 
10 -882 886 
10 -882 887 
10 -882 888 
10 -889 890 
10 -889 891 
10 -889 892 
10 -889 893 
10 -889 894 
10 -889 895 
10 -896 897 
10 -896 898 
10 -896 899 
10 -896 900 
10 -896 901 
10 -896 902 
10 -903 904 
10 -903 905 
10 -903 906 
10 -903 907 
10 -903 908 
10 -903 909 
10 -910 911 
10 -910 912 
10 -910 913 
10 -910 914 
10 -910 915 
10 -910 916 
10 -917 918 
10 -917 919 
10 -917 920 
10 -917 921 
10 -917 922 
10 -917 923 
10 -917 924 
10 -925 926 
10 -925 927 
10 -925 928 
10 -925 929 
10 -925 930 
10 -925 931 
10 -925 932 
10 -933 934 
10 -933 935 
10 -933 936 
10 -933 937 
10 -933 938 
10 -933 939 
10 -933 940 
10 -941 942 
10 -941 943 
10 -941 944 
10 -941 945 
10 -941 946 
10 -941 947 
10 -941 948 
10 -949 950 
10 -949 951 
10 -949 952 
10 -949 953 
10 -949 954 
10 -949 955 
10 -949 956 
10 -957 958 
10 -957 959 
10 -957 960 
10 -957 961 
10 -957 962 
10 -957 963 
10 -957 964 
10 -965 966 
10 -965 967 
10 -965 968 
10 -965 969 
10 -965 970 
10 -965 971 
10 -965 972 
10 -973 974 
10 -973 975 
10 -976 977 
10 -976 978 
10 -979 980 
10 -979 981 
10 -982 983 
10 -982 984 
10 -985 986 
10 -985 987 
10 -988 989 
10 -988 990 
10 -991 992 
10 -991 993 
10 -991 994 
10 -995 996 
10 -995 997 
10 -995 998 
10 -999 1000 
10 -999 1001 
10 -999 1002 
10 -1003 1004 
10 -1003 1005 
10 -1003 1006 
10 -1007 1008 
10 -1007 1009 
10 -1007 1010 
10 -1011 1012 
10 -1011 1013 
10 -1011 1014 
10 -1015 1016 
10 -1015 1017 
10 -1015 1018 
10 -1015 1019 
10 -1020 1021 
10 -1020 1022 
10 -1020 1023 
10 -1020 1024 
10 -1025 1026 
10 -1025 1027 
10 -1025 1028 
10 -1025 1029 
10 -1030 1031 
10 -1030 1032 
10 -1030 1033 
10 -1030 1034 
10 -1035 1036 
10 -1035 1037 
10 -1035 1038 
10 -1035 1039 
10 -1040 1041 
10 -1040 1042 
10 -1040 1043 
10 -1040 1044 
10 -1045 1046 
10 -1045 1047 
10 -1045 1048 
10 -1045 1049 
10 -1045 1050 
10 -1051 1052 
10 -1051 1053 
10 -1051 1054 
10 -1051 1055 
10 -1051 1056 
10 -1057 1058 
10 -1057 1059 
10 -1057 1060 
10 -1057 1061 
10 -1057 1062 
10 -1063 1064 
10 -1063 1065 
10 -1063 1066 
10 -1063 1067 
10 -1063 1068 
10 -1069 1070 
10 -1069 1071 
10 -1069 1072 
10 -1069 1073 
10 -1069 1074 
10 -1075 1076 
10 -1075 1077 
10 -1075 1078 
10 -1075 1079 
10 -1075 1080 
10 -1081 1082 
10 -1081 1083 
10 -1081 1084 
10 -1081 1085 
10 -1081 1086 
10 -1081 1087 
10 -1088 1089 
10 -1088 1090 
10 -1088 1091 
10 -1088 1092 
10 -1088 1093 
10 -1088 1094 
10 -1095 1096 
10 -1095 1097 
10 -1095 1098 
10 -1095 1099 
10 -1095 1100 
10 -1095 1101 
10 -1102 1103 
10 -1102 1104 
10 -1102 1105 
10 -1102 1106 
10 -1102 1107 
10 -1102 1108 
10 -1109 1110 
10 -1109 1111 
10 -1109 1112 
10 -1109 1113 
10 -1109 1114 
10 -1109 1115 
10 -1116 1117 
10 -1116 1118 
10 -1116 1119 
10 -1116 1120 
10 -1116 1121 
10 -1116 1122 
10 -1123 1124 
10 -1123 1125 
10 -1126 1127 
10 -1126 1128 
10 -1129 1130 
10 -1129 1131 
10 -1132 1133 
10 -1132 1134 
10 -1135 1136 
10 -1135 1137 
10 -1138 1139 
10 -1138 1140 
10 -1138 1141 
10 -1142 1143 
10 -1142 1144 
10 -1142 1145 
10 -1146 1147 
10 -1146 1148 
10 -1146 1149 
10 -1150 1151 
10 -1150 1152 
10 -1150 1153 
10 -1154 1155 
10 -1154 1156 
10 -1154 1157 
10 -1158 1159 
10 -1158 1160 
10 -1158 1161 
10 -1158 1162 
10 -1163 1164 
10 -1163 1165 
10 -1163 1166 
10 -1163 1167 
10 -1168 1169 
10 -1168 1170 
10 -1168 1171 
10 -1168 1172 
10 -1173 1174 
10 -1173 1175 
10 -1173 1176 
10 -1173 1177 
10 -1178 1179 
10 -1178 1180 
10 -1178 1181 
10 -1178 1182 
10 -1183 1184 
10 -1183 1185 
10 -1183 1186 
10 -1183 1187 
10 -1183 1188 
10 -1189 1190 
10 -1189 1191 
10 -1189 1192 
10 -1189 1193 
10 -1189 1194 
10 -1195 1196 
10 -1195 1197 
10 -1195 1198 
10 -1195 1199 
10 -1195 1200 
10 -1201 1202 
10 -1201 1203 
10 -1201 1204 
10 -1201 1205 
10 -1201 1206 
10 -1207 1208 
10 -1207 1209 
10 -1207 1210 
10 -1207 1211 
10 -1207 1212 
10 -1213 1214 
10 -1213 1215 
10 -1216 1217 
10 -1216 1218 
10 -1219 1220 
10 -1219 1221 
10 -1222 1223 
10 -1222 1224 
10 -1225 1226 
10 -1225 1227 
10 -1225 1228 
10 -1229 1230 
10 -1229 1231 
10 -1229 1232 
10 -1233 1234 
10 -1233 1235 
10 -1233 1236 
10 -1237 1238 
10 -1237 1239 
10 -1237 1240 
10 -1241 1242 
10 -1241 1243 
10 -1241 1244 
10 -1241 1245 
10 -1246 1247 
10 -1246 1248 
10 -1246 1249 
10 -1246 1250 
10 -1251 1252 
10 -1251 1253 
10 -1251 1254 
10 -1251 1255 
10 -1256 1257 
10 -1256 1258 
10 -1256 1259 
10 -1256 1260 
10 -1261 1262 
10 -1261 1263 
10 -1264 1265 
10 -1264 1266 
10 -1267 1268 
10 -1267 1269 
10 -1270 1271 
10 -1270 1272 
10 -1270 1273 
10 -1274 1275 
10 -1274 1276 
10 -1274 1277 
10 -1278 1279 
10 -1278 1280 
10 -1278 1281 
10 -1282 1283 
10 -1282 1284 
10 -1285 1286 
10 -1285 1287 
10 -1288 1289 
10 -1290 1291 
10 -1292 1293 
10 -1294 1295 
10 -1296 1297 
10 -1298 1299 
10 -1300 1301 
10 -1302 1303 
10 -1304 1305 
10 -1306 1307 
10 -1306 1308 
10 -1309 1310 
10 -1309 1311 
10 -1312 1313 
10 -1312 1314 
10 -1315 1316 
10 -1315 1317 
10 -1318 1319 
10 -1318 1320 
10 -1321 1322 
10 -1321 1323 
10 -1324 1325 
10 -1324 1326 
10 -1327 1328 
10 -1327 1329 
10 -1330 1331 
10 -1330 1332 
10 -1333 1334 
10 -1333 1335 
10 -1333 1336 
10 -1337 1338 
10 -1337 1339 
10 -1337 1340 
10 -1341 1342 
10 -1341 1343 
10 -1341 1344 
10 -1345 1346 
10 -1345 1347 
10 -1345 1348 
10 -1349 1350 
10 -1349 1351 
10 -1349 1352 
10 -1353 1354 
10 -1353 1355 
10 -1353 1356 
10 -1357 1358 
10 -1357 1359 
10 -1357 1360 
10 -1361 1362 
10 -1361 1363 
10 -1361 1364 
10 -1365 1366 
10 -1365 1367 
10 -1365 1368 
10 -1369 1370 
10 -1369 1371 
10 -1369 1372 
10 -1369 1373 
10 -1374 1375 
10 -1374 1376 
10 -1374 1377 
10 -1374 1378 
10 -1379 1380 
10 -1379 1381 
10 -1379 1382 
10 -1379 1383 
10 -1384 1385 
10 -1384 1386 
10 -1384 1387 
10 -1384 1388 
10 -1389 1390 
10 -1389 1391 
10 -1389 1392 
10 -1389 1393 
10 -1394 1395 
10 -1394 1396 
10 -1394 1397 
10 -1394 1398 
10 -1399 1400 
10 -1399 1401 
10 -1399 1402 
10 -1399 1403 
10 -1404 1405 
10 -1404 1406 
10 -1404 1407 
10 -1404 1408 
10 -1409 1410 
10 -1409 1411 
10 -1409 1412 
10 -1409 1413 
10 -1414 1415 
10 -1414 1416 
10 -1417 1418 
10 -1417 1419 
10 -1420 1421 
10 -1420 1422 
10 -1423 1424 
10 -1423 1425 
10 -1426 1427 
10 -1426 1428 
10 -1429 1430 
10 -1429 1431 
10 -1432 1433 
10 -1432 1434 
10 -1435 1436 
10 -1435 1437 
10 -1438 1439 
10 -1438 1440 
10 -1438 1441 
10 -1442 1443 
10 -1442 1444 
10 -1442 1445 
10 -1446 1447 
10 -1446 1448 
10 -1446 1449 
10 -1450 1451 
10 -1450 1452 
10 -1450 1453 
10 -1454 1455 
10 -1454 1456 
10 -1454 1457 
10 -1458 1459 
10 -1458 1460 
10 -1458 1461 
10 -1462 1463 
10 -1462 1464 
10 -1462 1465 
10 -1466 1467 
10 -1466 1468 
10 -1466 1469 
10 -1470 1471 
10 -1470 1472 
10 -1470 1473 
10 -1470 1474 
10 -1475 1476 
10 -1475 1477 
10 -1475 1478 
10 -1475 1479 
10 -1480 1481 
10 -1480 1482 
10 -1480 1483 
10 -1480 1484 
10 -1485 1486 
10 -1485 1487 
10 -1485 1488 
10 -1485 1489 
10 -1490 1491 
10 -1490 1492 
10 -1490 1493 
10 -1490 1494 
10 -1495 1496 
10 -1495 1497 
10 -1495 1498 
10 -1495 1499 
10 -1500 1501 
10 -1500 1502 
10 -1500 1503 
10 -1500 1504 
10 -1505 1506 
10 -1505 1507 
10 -1505 1508 
10 -1505 1509 
10 -1510 1511 
10 -1510 1512 
10 -1513 1514 
10 -1513 1515 
10 -1516 1517 
10 -1516 1518 
10 -1519 1520 
10 -1519 1521 
10 -1522 1523 
10 -1522 1524 
10 -1525 1526 
10 -1525 1527 
10 -1528 1529 
10 -1528 1530 
10 -1531 1532 
10 -1531 1533 
10 -1531 1534 
10 -1535 1536 
10 -1535 1537 
10 -1535 1538 
10 -1539 1540 
10 -1539 1541 
10 -1539 1542 
10 -1543 1544 
10 -1543 1545 
10 -1543 1546 
10 -1547 1548 
10 -1547 1549 
10 -1547 1550 
10 -1551 1552 
10 -1551 1553 
10 -1551 1554 
10 -1555 1556 
10 -1555 1557 
10 -1555 1558 
10 -1559 1560 
10 -1559 1561 
10 -1562 1563 
10 -1562 1564 
10 -1565 1566 
10 -1565 1567 
10 -1568 1569 
10 -1568 1570 
10 -1571 1572 
10 -1571 1573 
10 -1574 1575 
10 -1574 1576 
